x
1
2
1
2
1
2
1
2
1
2
1
111
1
111
1
111
1
111
1
111
684
879
684
879
684
879
684
879
684
879
684
879
684
879
878
880
878
880
878
880
878
880
878
879
878
879
878
879
878
111
878
111
153
155
153
155
153
155
153
155
291
374
291
374
291
374
291
374
291
374
508
374
508
374
508
549
508
549
508
549
508
549
155
549
155
549
155
111
155
111
155
111
155
111
155
279
896
279
896
279
896
279
896
279
896
279
896
255
538
255
538
255
538
255
538
255
538
896
393
237
238
237
238
237
238
237
238
237
238
237
238
237
238
237
238
237
238
237
238
237
238
393
896
393
278
927
278
927
278
927
278
927
278
927
278
927
921
927
921
927
921
927
921
730
731
730
731
730
731
730
731
730
731
730
731
254
925
254
925
254
925
254
925
254
925
254
731
254
731
30
70
30
70
30
631
30
631
30
631
30
631
30
631
30
631
634
631
634
650
634
650
634
650
634
924
634
924
634
924
731
924
377
419
377
419
377
419
377
419
900
187
637
187
637
187
637
187
637
187
637
187
637
187
653
187
653
187
653
187
653
919
653
919
926
919
926
919
926
919
926
411
926
411
926
411
926
900
926
900
926
900
926
900
924
900
924
900
924
900
924
900
924
900
178
417
178
417
418
417
418
417
191
417
191
417
191
393
420
421
420
421
420
421
759
421
759
421
759
421
759
421
759
421
759
421
759
627
759
627
759
627
759
627
759
627
573
574
573
574
573
574
573
574
573
574
573
574
573
574
573
574
573
574
460
443
460
443
460
443
460
547
102
547
102
547
102
547
460
547
460
547
427
431
427
431
427
431
427
431
427
431
135
431
135
431
135
532
135
532
135
532
135
532
100
933
100
933
100
933
100
933
100
933
100
933
100
933
100
933
100
933
271
364
271
364
271
364
271
364
271
364
271
364
271
364
271
364
271
364
271
364
424
425
424
425
424
425
424
425
934
425
934
425
934
425
510
425
510
425
510
289
510
289
510
289
482
692
694
692
694
692
694
692
694
692
694
692
124
692
124
692
124
692
124
692
124
269
276
269
276
474
885
474
885
474
885
474
885
474
885
474
885
474
885
474
885
474
885
474
885
482
124
482
124
703
775
453
127
453
127
453
127
453
775
453
775
703
124
703
124
703
124
703
112
114
112
114
112
114
116
114
116
114
116
114
368
916
368
916
368
916
368
916
368
571
158
571
158
571
158
571
158
571
158
76
77
76
77
76
77
76
77
76
77
76
812
76
812
76
812
76
812
168
189
168
189
168
189
168
189
168
189
168
189
168
189
168
189
264
244
456
772
456
772
456
772
457
773
457
773
457
773
457
773
457
773
457
772
457
772
457
772
457
772
457
772
244
772
576
582
576
582
576
582
576
583
772
583
772
583
588
114
703
114
703
192
659
190
369
190
369
190
369
190
369
190
369
190
369
190
369
190
203
190
203
225
860
220
860
220
860
220
860
220
860
220
860
220
860
220
860
220
860
225
860
225
203
225
203
225
203
225
202
465
777
465
777
465
777
465
777
465
777
465
777
365
493
365
493
365
493
494
495
494
495
494
495
494
777
494
777
494
225
202
225
202
225
202
225
202
151
202
151
202
151
202
151
202
151
71
151
71
151
71
151
71
151
71
151
71
151
71
599
778
599
778
599
778
599
778
599
778
599
778
599
778
599
778
599
778
437
439
437
439
935
439
935
439
792
439
792
439
792
778
792
559
563
559
563
559
563
559
563
564
563
564
563
564
563
564
563
626
936
626
936
626
936
626
936
626
936
626
563
626
563
804
805
804
805
804
824
804
824
804
827
804
827
804
827
563
792
812
908
503
355
503
355
503
355
503
355
503
355
503
355
503
355
503
355
503
355
447
340
447
340
447
340
908
340
908
340
908
340
908
340
908
340
908
340
908
340
908
812
908
812
908
812
264
449
801
932
801
932
801
932
801
932
801
932
801
932
18
23
18
23
18
23
18
23
632
23
632
23
632
23
632
23
932
23
932
449
932
449
264
449
264
449
264
449
812
792
812
792
158
703
192
659
192
659
192
659
192
659
192
659
192
659
192
659
192
659
192
659
192
71
68
320
321
320
321
320
321
320
321
320
321
320
321
320
322
320
322
320
322
253
277
253
277
253
277
253
277
253
277
253
277
253
277
253
277
534
277
534
892
534
892
325
326
325
326
325
326
325
326
325
326
325
326
325
326
325
326
325
326
892
326
892
322
892
322
892
322
892
322
68
322
68
322
68
322
68
322
68
557
739
329
331
329
331
329
739
329
739
329
739
329
739
329
530
329
530
329
530
329
530
529
612
529
612
529
612
529
612
529
612
529
612
529
612
529
960
529
960
288
960
288
960
579
580
579
580
579
580
579
580
579
580
579
580
579
580
579
580
579
580
584
580
584
580
584
745
270
745
270
745
270
745
270
745
270
745
584
745
584
745
831
835
831
835
831
835
831
835
831
231
232
231
232
231
232
231
232
231
232
231
232
231
232
234
232
234
232
234
232
234
91
234
91
234
91
234
91
831
91
831
91
831
194
831
194
725
732
725
732
725
732
725
732
725
732
738
732
738
350
738
350
738
589
137
274
137
274
137
274
589
738
589
738
589
738
589
738
589
274
250
533
250
533
492
504
492
504
492
504
533
504
533
504
274
504
274
504
274
504
575
328
330
328
330
328
330
328
353
328
353
328
353
328
353
575
353
44
48
44
48
44
298
44
298
44
298
216
298
216
298
216
298
216
298
216
298
216
298
216
96
97
96
97
96
97
840
842
840
842
840
842
97
842
97
25
489
25
489
25
489
25
490
25
490
25
490
25
611
25
611
25
611
25
611
980
611
980
611
980
611
980
611
980
61
979
61
979
61
979
61
979
980
979
980
979
980
979
980
979
609
389
351
389
351
389
351
389
351
389
284
462
284
462
284
462
284
462
284
462
857
558
977
558
977
558
977
558
977
558
977
558
977
558
977
558
977
857
977
857
977
857
42
43
42
43
103
43
103
43
103
43
103
43
103
43
103
43
103
857
103
454
315
454
315
454
315
454
315
454
315
454
315
454
315
454
315
371
507
201
507
201
507
201
507
201
854
201
854
201
854
201
854
201
854
201
854
201
854
201
854
884
888
884
888
884
64
545
64
545
64
545
64
545
64
545
63
765
63
765
63
765
63
765
63
765
63
765
63
545
63
545
63
545
63
302
951
302
951
795
797
795
797
795
755
756
755
756
755
756
795
756
795
756
795
951
795
951
795
951
795
951
63
951
751
7
360
7
360
7
360
7
360
7
360
7
360
7
360
7
360
7
360
7
949
7
949
886
949
886
949
886
3
518
3
518
3
518
3
518
3
518
913
914
913
914
913
914
913
914
913
914
515
518
789
790
789
790
789
790
789
790
789
790
789
790
789
790
789
790
791
790
791
790
791
790
791
518
791
518
791
518
791
518
791
814
815
814
815
814
815
814
815
814
815
814
815
814
815
814
815
463
464
463
464
815
464
815
464
815
464
839
464
839
464
839
464
839
464
839
464
839
548
867
871
867
871
867
871
867
871
867
871
867
871
867
871
867
871
867
871
867
871
867
856
548
856
548
856
548
856
548
856
548
856
548
839
548
839
548
51
221
222
221
222
221
222
221
561
221
561
221
561
605
606
605
606
605
646
605
646
561
646
561
646
561
646
561
646
561
646
561
646
561
51
561
51
548
51
548
51
877
598
950
598
950
598
950
886
950
886
950
886
950
886
950
409
953
409
953
409
953
409
953
409
953
409
953
409
953
409
953
409
953
409
950
409
950
149
751
149
751
149
751
515
193
515
193
515
193
882
664
666
664
666
664
882
664
882
664
882
572
836
198
836
198
836
198
836
198
836
198
836
198
836
198
836
198
836
198
836
198
836
572
436
193
436
193
436
193
436
193
436
193
791
796
791
796
193
572
373
188
373
188
373
188
167
171
167
171
167
171
167
171
167
171
167
171
167
171
167
171
167
171
339
171
339
246
446
946
446
946
446
946
446
946
446
946
446
946
446
946
446
946
446
946
446
946
446
946
246
245
367
245
367
245
367
245
367
245
367
245
367
245
367
245
899
245
899
245
899
618
899
618
899
618
899
246
899
246
899
246
899
246
188
246
188
246
188
246
188
246
339
246
339
75
299
945
299
945
299
129
247
129
247
129
247
131
248
131
248
131
248
131
248
131
347
131
347
131
247
131
247
131
247
75
247
75
247
75
247
75
247
75
285
262
485
487
485
487
485
487
485
487
485
487
213
214
213
214
213
214
487
214
487
214
487
214
262
214
262
214
262
118
262
118
505
509
505
509
505
509
505
509
505
509
944
509
944
509
944
509
944
652
846
652
846
652
846
652
846
652
846
847
846
847
848
847
848
847
848
847
848
156
848
156
848
156
11
290
11
290
292
943
292
943
292
943
292
943
292
943
292
290
292
156
628
565
566
565
566
565
566
565
566
565
566
565
566
644
566
644
628
156
944
156
944
156
292
156
292
285
683
581
683
581
683
581
683
581
461
581
461
590
307
432
307
432
307
432
307
432
128
915
128
915
128
915
128
915
432
29
432
29
432
29
432
29
432
29
432
29
361
29
361
29
361
29
361
29
361
29
361
837
700
472
700
472
700
472
700
472
810
915
810
472
810
472
810
472
810
472
810
590
461
590
461
590
852
948
852
948
852
948
852
948
852
948
852
948
852
948
852
948
852
948
852
531
852
531
682
412
657
412
657
682
657
682
657
682
657
682
657
531
657
531
657
342
657
342
657
342
685
614
647
614
647
614
647
614
647
614
647
614
647
614
647
614
120
793
120
793
120
793
120
793
120
793
120
793
761
762
761
762
761
762
761
762
761
762
761
762
761
763
761
763
597
763
597
763
597
763
793
763
793
763
793
763
643
891
86
978
86
978
86
978
86
978
86
978
891
978
891
978
643
978
90
978
90
462
90
609
90
979
90
979
90
733
471
955
471
955
471
955
471
955
471
955
471
955
471
955
471
955
471
955
471
26
660
661
660
661
660
661
660
661
660
661
660
661
660
661
660
661
660
661
660
57
660
57
251
275
251
275
251
275
251
145
251
145
251
145
251
145
251
145
251
145
569
769
845
769
845
769
569
769
569
769
569
769
145
769
34
869
34
869
34
869
34
869
34
869
34
869
34
869
34
869
754
869
754
869
754
869
754
408
754
408
754
408
754
408
754
404
636
404
636
404
636
404
938
404
938
404
938
404
938
404
938
404
938
754
938
754
938
164
166
164
166
164
938
164
226
227
226
227
226
227
226
227
226
227
226
227
226
227
226
227
235
227
235
227
235
316
235
316
235
316
235
662
235
662
866
310
332
310
332
310
332
310
864
176
864
176
310
866
310
866
310
866
662
866
366
806
366
806
366
806
121
142
121
142
121
142
121
142
121
142
121
142
121
392
121
392
121
392
121
392
121
218
219
218
219
218
219
218
219
578
219
578
219
578
219
578
219
578
219
578
806
578
134
308
476
387
388
387
388
387
388
387
388
387
388
387
520
823
520
823
520
823
520
823
520
823
387
476
387
476
387
476
387
823
303
305
303
305
303
305
303
305
303
305
303
305
303
99
303
99
303
99
823
525
527
525
527
525
527
525
527
525
527
60
519
60
519
60
519
60
519
60
519
60
519
60
519
60
519
60
519
60
519
60
873
883
873
883
873
527
873
527
873
527
99
527
99
527
99
527
723
17
40
17
40
54
40
54
40
54
40
54
294
54
294
54
723
54
702
54
702
233
554
233
554
233
760
233
760
233
760
233
760
233
760
233
381
382
381
382
381
382
381
382
381
382
381
382
381
382
381
382
381
382
381
382
381
382
400
233
400
233
400
501
400
501
400
394
416
394
416
394
416
394
416
394
416
394
304
394
304
394
304
394
304
394
304
702
304
702
444
293
217
543
602
543
602
41
817
41
817
41
817
293
217
293
217
293
217
293
217
293
217
293
217
293
217
293
217
293
217
293
217
444
702
444
175
113
117
113
117
113
117
113
117
113
117
175
117
175
117
175
117
175
333
771
931
771
931
771
931
771
931
771
931
771
600
39
433
39
433
39
433
39
433
39
600
333
175
333
175
333
175
333
175
333
95
863
95
863
95
863
95
863
95
863
95
863
95
863
95
863
95
863
95
863
358
863
358
498
726
861
862
861
862
861
862
861
862
861
862
861
862
861
929
861
929
861
929
726
929
726
929
726
929
726
929
726
929
726
929
726
929
726
929
726
108
132
108
132
108
132
108
132
108
132
744
601
744
601
744
601
744
601
511
601
511
601
511
601
511
601
511
601
498
726
395
228
209
212
209
212
209
212
209
212
209
212
209
212
209
212
209
212
209
212
209
212
209
928
228
928
228
928
708
27
708
27
708
27
708
27
708
928
708
928
708
928
708
104
223
104
223
104
868
104
868
267
477
267
477
267
477
267
477
267
477
267
477
267
477
267
477
656
922
656
922
656
922
656
922
656
858
390
240
390
240
875
876
875
876
875
876
841
849
841
849
841
849
841
849
841
849
841
849
841
849
876
849
876
240
876
240
876
240
876
240
876
240
876
240
876
240
426
748
426
748
426
748
426
180
426
180
426
180
426
180
654
514
654
514
654
514
654
911
941
911
941
911
654
911
654
911
654
180
654
180
240
180
370
521
370
521
180
521
180
521
180
521
540
607
540
607
540
607
540
607
540
607
540
607
540
607
540
45
541
45
541
92
541
92
541
92
541
92
541
92
541
92
541
92
541
92
541
92
541
92
749
341
306
341
306
341
306
341
306
341
749
341
675
82
181
182
181
182
181
182
181
182
181
182
181
182
181
182
181
182
181
182
181
182
184
82
184
82
184
82
675
82
675
62
37
62
37
62
37
62
37
62
37
698
651
742
651
742
651
742
651
742
651
742
651
742
312
691
312
691
312
691
312
691
312
691
693
695
693
695
693
695
693
695
780
200
13
125
126
125
126
125
126
125
126
125
126
125
126
13
126
13
126
13
200
13
200
13
200
13
200
13
200
13
200
148
200
148
200
148
780
691
780
691
780
691
780
691
780
698
9
12
9
12
9
12
9
12
9
12
9
12
9
12
9
12
9
12
208
12
208
638
208
638
208
638
677
680
677
680
807
680
807
680
807
680
807
680
807
680
807
680
807
177
179
177
179
177
179
177
179
177
179
177
905
177
905
807
905
638
905
698
905
698
905
698
905
698
905
698
905
698
912
629
743
629
743
629
912
629
912
629
906
629
906
629
675
146
147
146
147
146
147
146
147
146
147
146
147
146
147
146
942
146
942
146
942
146
942
774
942
774
942
774
855
577
455
642
455
642
455
642
455
642
455
642
455
642
455
642
455
642
455
642
455
642
577
855
577
855
577
855
577
855
577
855
577
855
577
855
577
402
570
402
570
402
570
107
199
441
940
441
940
887
940
887
940
887
940
887
940
36
940
36
940
36
940
36
940
36
199
107
199
36
199
570
473
688
473
688
473
688
473
688
704
688
704
715
768
715
768
715
768
715
768
715
768
4
768
4
768
281
259
281
259
281
259
281
259
281
259
281
920
281
920
281
920
281
704
281
704
786
51
877
51
877
51
877
51
877
517
406
87
357
87
357
406
357
406
357
406
357
406
357
406
301
562
301
562
301
562
301
562
301
562
301
562
301
562
379
380
379
380
562
327
8
10
8
10
8
10
8
10
8
10
8
10
8
10
8
10
8
10
8
947
8
947
56
947
56
947
56
947
56
947
56
947
56
947
327
947
327
592
593
592
593
592
593
592
593
592
593
592
593
592
314
776
808
776
808
776
314
776
314
776
735
776
735
776
735
776
735
776
735
375
242
375
242
375
242
375
242
375
242
375
242
375
242
375
242
375
242
375
735
375
735
595
594
596
594
596
594
596
594
596
594
596
594
596
595
512
816
309
317
309
317
309
317
309
317
309
317
816
317
512
165
101
165
101
165
101
165
101
165
101
165
101
165
101
165
101
735
317
327
317
735
517
877
517
877
796
786
796
786
796
786
796
786
796
786
796
786
796
877
796
877
751
951
751
874
553
727
728
727
728
727
728
727
728
727
728
553
728
854
884
854
884
854
884
872
686
872
686
872
686
872
884
872
884
872
884
872
884
728
884
52
53
52
53
152
53
152
53
152
53
152
53
152
53
152
53
685
614
378
105
378
105
378
105
130
5
952
5
952
130
952
130
952
130
952
130
952
130
265
130
265
130
256
130
256
130
256
423
746
423
746
423
746
423
746
423
256
423
256
423
256
423
256
423
256
909
133
909
133
909
133
624
28
633
28
633
28
633
28
633
28
633
28
633
28
633
28
324
766
324
766
324
766
324
766
324
624
133
624
133
624
133
324
133
324
133
324
133
324
133
324
133
324
256
635
769
635
769
635
769
635
769
635
26
676
679
676
679
26
679
26
679
26
679
57
679
57
679
57
782
323
782
323
782
323
782
323
782
323
782
323
782
323
782
323
782
57
471
733
90
733
90
69
658
767
658
767
658
767
658
767
658
767
658
767
658
770
658
770
658
69
859
69
859
69
859
69
859
69
859
69
859
371
859
371
614
685
342
685
342
685
342
685
342
105
635
164
843
164
843
164
843
164
843
164
843
164
843
164
843
210
211
210
211
210
211
210
211
210
211
210
211
134
308
134
428
794
428
794
428
449
428
449
428
449
428
134
792
843
635
57
35
902
904
902
904
902
150
902
150
902
448
902
448
902
448
902
779
809
779
809
779
809
391
504
353
491
736
491
736
491
736
491
736
497
429
750
429
750
429
750
429
750
429
750
429
750
429
750
429
750
497
736
353
736
65
66
65
66
65
73
258
73
258
73
258
73
258
73
258
73
258
73
258
73
258
73
258
73
65
73
65
230
655
230
655
230
655
230
655
230
655
901
655
901
655
901
965
901
965
901
965
901
965
488
965
488
965
488
965
717
718
717
718
717
718
717
718
717
718
717
718
717
967
717
967
717
967
717
967
717
967
719
295
719
295
719
295
719
295
719
295
719
295
719
967
719
967
356
186
356
186
356
186
356
821
354
821
354
821
354
821
356
821
356
967
356
434
435
434
435
434
435
434
435
434
435
434
435
434
435
622
623
622
623
622
623
622
623
622
623
622
435
622
435
622
435
622
435
622
560
475
560
475
560
475
560
475
560
72
560
72
560
72
560
72
197
440
757
440
757
440
757
440
757
440
757
758
757
758
757
758
757
758
757
758
197
72
197
72
197
72
197
72
197
72
356
72
300
343
345
343
345
343
345
343
345
343
345
343
345
343
345
343
345
343
345
343
966
300
966
716
115
229
403
405
403
405
403
405
403
405
229
405
229
405
229
405
229
405
229
405
229
20
21
20
21
20
21
20
21
20
21
20
21
20
687
20
687
20
687
229
687
229
687
229
687
716
115
716
687
716
50
716
50
716
50
716
50
716
50
716
50
716
50
716
50
663
496
844
496
844
496
803
496
803
496
154
241
604
241
604
241
604
241
604
241
604
241
604
241
604
241
604
241
764
154
764
154
764
154
764
74
79
74
79
74
79
74
79
74
79
74
79
74
79
74
79
74
79
74
349
74
349
838
349
838
349
838
349
838
349
838
903
689
690
689
690
689
690
689
690
689
690
705
690
705
690
705
690
705
690
705
690
705
706
705
706
741
973
741
973
741
973
741
98
740
971
740
971
740
971
740
971
740
720
721
720
721
720
721
720
724
720
724
720
724
720
724
970
724
970
740
970
740
970
384
970
384
970
98
741
98
741
47
741
47
741
47
551
976
551
976
551
976
551
976
551
976
551
506
551
506
551
506
551
47
551
47
551
47
903
160
196
160
196
160
196
160
196
160
196
160
196
401
496
663
496
663
496
663
496
663
496
663
496
663
401
903
838
903
838
903
838
903
401
903
401
50
442
438
442
438
442
119
442
119
442
50
442
665
678
681
678
681
678
681
678
681
678
681
678
681
678
681
678
681
49
681
49
681
49
681
49
19
24
19
24
19
24
19
24
19
24
19
24
19
24
19
24
19
272
163
272
163
272
268
787
964
787
964
787
964
787
964
268
964
268
964
268
964
268
964
272
49
665
49
665
49
665
49
665
442
665
442
665
442
665
442
828
829
828
829
828
829
830
829
830
829
830
969
830
969
14
16
14
16
14
16
14
16
14
16
14
16
14
31
14
31
969
31
969
31
969
31
969
31
969
31
969
31
969
31
969
31
969
526
544
526
544
526
544
526
544
526
544
526
544
747
544
747
544
747
544
747
544
747
544
747
78
81
78
81
78
81
78
81
78
81
78
81
78
747
78
747
78
747
78
747
80
898
80
898
80
898
80
898
80
898
80
898
80
898
80
898
80
968
80
968
80
968
918
968
918
968
918
968
918
968
918
968
918
968
918
968
918
968
918
249
143
273
143
273
143
273
143
273
143
273
143
273
143
273
143
273
143
273
249
273
249
918
249
918
249
138
141
138
141
138
141
138
555
556
555
556
555
556
555
556
555
138
555
138
555
138
555
138
555
15
964
15
964
15
263
962
344
346
344
346
344
346
344
962
344
962
344
962
344
962
344
962
344
962
344
962
397
470
818
820
818
820
818
820
818
820
818
470
818
470
818
470
383
470
383
470
383
470
383
470
383
470
397
962
397
781
811
781
811
781
811
781
811
781
811
781
811
781
811
781
811
781
811
781
959
397
959
397
959
397
959
397
959
397
959
397
959
825
826
825
826
825
889
825
889
825
959
286
348
895
348
895
348
895
348
895
348
895
422
895
422
895
422
895
422
895
422
895
422
799
195
799
195
799
195
799
195
799
195
799
195
799
195
799
195
799
195
67
195
67
195
67
567
568
567
568
567
568
567
568
567
67
567
67
567
422
286
422
286
422
286
522
524
522
524
522
524
522
524
522
524
522
524
522
524
522
524
546
524
546
524
546
286
546
286
546
385
386
385
386
385
386
385
386
641
386
641
386
641
386
641
788
641
788
641
788
641
788
956
788
956
907
956
907
956
907
956
907
318
319
318
319
318
319
318
319
318
319
318
639
907
639
907
639
907
639
907
639
907
639
907
639
851
639
851
639
851
639
851
430
215
430
215
430
215
122
123
122
123
122
123
122
123
122
123
122
123
122
376
585
376
585
376
585
376
585
376
585
376
585
376
585
376
585
376
585
122
585
122
215
122
215
122
215
106
337
106
337
608
337
608
337
608
337
484
486
484
486
484
486
484
486
484
486
484
486
484
337
484
613
484
613
484
613
484
613
670
613
670
613
670
613
670
613
670
613
670
58
359
58
359
58
359
58
359
58
359
266
297
266
297
266
297
266
297
266
359
266
359
266
359
362
363
362
363
362
363
362
363
362
363
362
363
362
414
362
414
413
937
413
937
413
937
413
937
413
937
413
937
413
937
414
937
414
937
414
169
170
169
170
169
170
169
170
169
170
169
414
169
414
169
236
260
537
260
537
260
537
260
537
260
537
260
752
260
752
260
752
260
752
282
753
282
753
282
753
282
753
282
753
282
753
282
753
893
753
893
753
893
753
893
752
893
752
893
752
893
752
236
752
236
499
500
499
500
499
500
239
6
535
174
954
174
954
174
954
174
954
174
954
174
954
174
535
174
535
6
535
6
535
6
535
6
535
239
535
239
535
239
535
617
619
617
619
617
619
617
619
620
619
620
619
620
619
620
619
620
619
620
619
620
621
819
853
819
853
819
853
819
853
819
853
819
853
819
853
819
621
500
621
500
621
500
621
172
173
172
173
172
173
172
173
172
173
172
173
172
173
172
173
172
173
172
352
640
352
640
957
621
957
621
957
93
94
93
94
93
94
93
94
93
94
93
94
93
94
84
85
84
85
84
85
94
85
542
645
648
645
648
542
648
542
648
542
648
542
648
542
648
483
89
468
89
468
89
468
89
468
89
468
469
468
469
468
469
523
469
523
469
523
469
669
469
669
483
669
55
59
55
59
669
648
669
648
669
648
669
648
669
109
110
109
110
109
110
109
110
109
110
109
110
109
110
722
822
963
822
963
822
963
822
722
110
722
83
207
83
207
83
207
83
207
83
207
83
207
83
207
83
207
224
207
224
207
224
865
224
865
224
865
224
865
263
15
263
15
263
15
865
15
865
15
865
15
865
15
865
15
865
959
894
616
958
616
958
616
958
616
958
616
958
616
958
616
958
894
958
894
958
894
958
813
890
813
890
813
890
813
890
958
890
851
890
851
890
851
890
851
890
851
215
851
215
851
215
359
670
494
243
458
696
458
696
697
696
697
243
697
243
697
204
205
204
205
204
205
204
205
204
205
204
205
206
205
206
205
206
697
206
697
206
697
206
697
206
697
206
697
206
697
276
870
910
870
910
870
910
870
910
870
699
870
699
870
699
870
699
372
398
372
398
372
398
372
398
372
398
372
398
372
398
372
398
252
729
734
729
734
729
734
729
252
729
252
729
252
729
252
729
157
159
157
159
157
159
157
159
157
159
157
603
157
603
157
603
157
603
157
603
625
603
625
701
625
701
625
701
625
701
625
701
625
701
625
701
289
532
547
532
588
532
588
532
588
532
289
532
703
276
494
567
513
516
513
516
513
550
513
550
513
550
513
550
513
550
513
550
513
550
513
550
513
671
667
672
667
672
667
672
667
672
674
672
674
784
674
784
674
784
674
784
674
784
674
784
674
784
674
784
674
671
567
671
567
671
552
452
552
452
552
452
552
452
552
452
552
452
552
452
552
452
552
452
552
671
552
671
530
671
530
671
530
671
530
671
530
671
530
194
451
917
451
917
451
917
451
917
451
194
745
334
335
334
335
334
335
334
335
334
335
334
335
334
335
334
335
334
336
338
336
338
336
338
336
745
336
745
336
194
336
194
336
442
401
764
712
713
712
713
712
713
712
713
712
713
712
713
712
713
712
713
714
22
714
22
714
22
586
587
586
587
586
591
22
591
22
591
22
591
22
591
22
591
22
478
480
478
480
136
479
136
479
136
479
610
479
610
479
610
479
610
479
610
479
610
975
610
975
610
32
33
32
33
32
33
32
33
32
33
32
33
974
649
974
649
974
649
481
38
481
38
481
38
481
38
481
38
481
38
481
38
481
38
798
502
850
502
850
502
798
502
798
502
798
502
798
502
798
502
798
502
798
38
798
38
410
528
410
528
410
528
410
528
410
528
410
396
459
396
459
396
410
396
410
396
410
649
22
649
22
649
610
649
881
407
881
407
881
407
881
410
881
410
881
764
283
897
283
897
283
897
283
897
283
897
283
897
283
897
283
897
261
539
261
539
261
539
261
897
764
897
764
897
764
401
764
401
287
972
287
972
287
972
287
972
287
972
747
802
737
802
737
802
737
802
737
802
737
802
737
802
737
802
737
802
737
802
737
249
865
959
215
236
215
236
535
957
85
669
85
669
85
957
959
957
236
957
236
957
236
957
236
957
249
401
832
833
832
833
834
833
834
833
834
833
834
833
834
833
834
833
965
65
965
65
965
65
965
185
97
415
800
445
961
445
961
445
961
445
961
445
961
445
961
445
961
445
800
445
800
445
800
445
800
415
391
35
280
296
280
296
280
630
280
630
280
630
280
630
280
630
280
630
257
536
257
536
257
536
257
536
257
536
257
536
630
536
630
536
68
557
68
536
68
792
843
635
57
635
57
635
57
635
843
792
68
792
134
837
361
837
361
810
590
810
590
810
590
572
751
874
46
874
46
874
46
874
46
709
46
709
46
735
877
735
46
572
339
285
292
675
629
675
629
675
629
698
780
698
780
148
780
148
704
339
292
339
704
339
466
444
466
444
466
444
466
444
600
333
600
333
139
140
139
140
139
140
139
140
139
140
139
140
139
140
930
140
930
140
930
399
930
399
930
399
930
183
930
183
868
615
311
313
311
313
311
313
615
313
615
313
707
313
707
313
707
313
395
313
395
313
395
144
450
88
450
88
450
88
450
88
450
161
162
161
162
161
162
161
162
161
162
161
162
161
162
161
162
450
162
467
923
467
923
467
923
467
923
467
923
467
923
710
711
710
711
710
711
710
711
710
711
710
711
923
711
923
711
923
785
923
785
783
939
783
939
783
939
783
939
783
939
783
939
783
939
783
939
783
939
785
656
858
656
858
939
785
939
785
858
521
540
521
540
521
540
521
858
868
144
668
673
668
673
668
673
668
673
668
673
144
673
144
673
144
673
144
868
144
868
144
395
601
627
574
627
574
627
393
627
393
191
393
191
393
358
333
358
134
358
134
358
134
358
134
105
90
415
90
415
105
415
185
415
185
415
185
415
185
415
185
415
185
415
185
881
185
881
185
881
185
881
401
336
401
336
401
249
276
393
276
393
858
393
339
148
339
148
339
148
46
148
46
148
249
148
249
249
